14 -37 12 0
-14 -38 -39 0
-38 -39 0
d -14 -38 -39 0
17 1 0
d 17 29 1 0
-11 -39 0
d -11 -17 -39 0
-39 0
12 0
17 0
-14 0
9 0
19 0
34 0
-15 0
-36 0
-37 0
-7 0
-6 0
-16 0
10 0
20 0
21 0
8 0
33 0
31 0
30 0
32 0
1 0
2 0
13 0
24 0
11 0
23 0
22 0
-38 0
-35 0
-5 0
0
